<number of tasks>
50

<cycle time>
1000

<order strength>
0.198


<task times>
1 122
2 67
3 124
4 133
5 161
6 82
7 148
8 110
9 161
10 166
11 229
12 99
13 216
14 52
15 116
16 300
17 96
18 183
19 170
20 37
21 149
22 127
23 53
24 314
25 109
26 64
27 130
28 53
29 222
30 202
31 112
32 116
33 21
34 81
35 156
36 158
37 77
38 125
39 260
40 272
41 149
42 22
43 43
44 168
45 56
46 83
47 49
48 126
49 83
50 166

<precedence relations>
3,8
3,13
4,9
5,14
5,15
6,11
6,12
7,10
7,38
8,20
9,20
12,16
14,21
15,17
15,18
15,19
16,21
16,22
19,24
19,25
19,48
20,23
20,26
21,27
21,29
21,30
21,31
21,33
23,32
23,35
26,28
30,38
31,35
31,36
31,37
32,34
35,41
37,39
37,43
37,44
38,40
38,42
39,46
39,48
39,49
42,45
42,47
43,50

<end>
